DIMENSION :17
NODE_COORD_SECTION
1 -83.11265615517974 54.60160087047339
2 -4.73766300757508 28.31881886512332
3 27.191878827205556 -70.29521353111383
4 5.474799528685921 61.77169910084163
5 73.21643959509535 69.34271100689742
6 9.70952873096769 17.46313667523289
7 11.469130536345745 49.136644090546554
8 -81.85888684717506 -75.20819417030057
9 93.68863483576001 71.32169347206934
10 63.30389944587691 -67.19329812848505
11 -20.00510108548694 -1.2066932200604015
12 -78.51480858264588 -89.45252323442247
13 33.290743163102775 22.945265819462975
14 88.57801296408306 -17.856343859021067
15 -53.73665674215174 -89.94362018469974
16 88.01183909671678 -50.26927683010085
17 0.18594007508588106 -4.60311935253695
EOF
